c SAT Generator for power-law distributed variable frequencies
c -g u -v 20 -c 91 -k 3 -p 2.750000 -b 3.200000 -f /home/schmidt/Devel/ni-kop-sat/data/ensemble/ruf20-91/ruf20-91-429 -u 1 -U 1 -s 2199268799
p cnf 20 91
14 19 -20 0
-2 4 -18 0
-3 -10 14 0
-11 13 -14 0
-17 18 19 0
-12 18 -20 0
-3 -5 -11 0
7 14 -15 0
-4 7 17 0
-10 -16 20 0
-2 9 19 0
1 -3 20 0
4 9 -14 0
4 -9 -10 0
7 -13 -17 0
-10 13 15 0
9 -12 -14 0
11 15 17 0
-4 14 17 0
7 -10 18 0
-1 -15 20 0
2 -17 18 0
-9 12 16 0
3 -6 9 0
3 -15 19 0
6 -17 -19 0
-5 10 20 0
-3 -9 16 0
2 -15 17 0
-5 -10 17 0
2 7 11 0
-10 13 -20 0
6 -9 12 0
1 7 19 0
2 13 14 0
-1 -6 18 0
6 12 -18 0
-4 5 20 0
-3 -6 -15 0
-11 -16 -18 0
4 5 20 0
-8 -16 17 0
8 9 13 0
-1 18 -20 0
-7 -9 13 0
-3 -13 16 0
-2 -7 12 0
-1 -8 10 0
5 7 17 0
-7 -9 15 0
1 6 9 0
4 6 -10 0
-1 10 -18 0
-3 16 20 0
5 9 13 0
-3 18 19 0
15 -17 18 0
4 7 -10 0
-2 16 18 0
12 14 18 0
5 -17 20 0
-5 8 -18 0
-14 -19 20 0
-2 3 -14 0
8 13 -16 0
-1 -6 20 0
-3 15 -20 0
-11 12 14 0
2 10 17 0
6 7 -12 0
1 5 12 0
-8 16 -20 0
7 14 20 0
-6 11 18 0
11 -14 18 0
-9 -10 20 0
-4 -11 -12 0
-4 5 12 0
-4 -9 -19 0
9 18 20 0
3 8 -18 0
10 -15 -19 0
-5 15 -16 0
5 8 15 0
9 13 19 0
-1 9 -18 0
2 14 15 0
-4 -16 19 0
3 14 -17 0
-11 -14 -19 0
-7 17 -18 0
